qe/outputs/qe/cbrdelay_l0_discretize/T=5,eliminate=[I_0,I_1,I_2,I_3,I_4,L_2,L_3,L_4,B,lhs=C].smt2
; benchmark generated from python API
(set-info :status unknown)
(declare-fun A_0 () Real)
(declare-fun S_2 () Real)
(declare-fun C () Real)
(declare-fun L_0 () Real)
(declare-fun S_1 () Real)
(declare-fun S_4 () Real)
(declare-fun S_3 () Real)
(declare-fun S_0 () Real)
(declare-fun A_2 () Real)
(declare-fun L_1 () Real)
(declare-fun L0 () Real)
(declare-fun A_1 () Real)
(declare-fun A_3 () Real)
(declare-fun A_4 () Real)
(assert
 (let (($x37 (>= L0 0.0)))
 (let (($x789 (>= C 5.0)))
 (let (($x4637 (<= 0.0 (+ C L_1 S_0 (* (- 1.0) A_1)))))
 (let (($x4797 (not $x4637)))
 (let (($x4794 (<= (+ (* (- 1.0) L_0) (* 2.0 C) A_1 (* (- 1.0) S_4)) 0.0)))
 (let (($x4769 (<= (+ L_1 C (* (- 1.0) A_1) S_0) 0.0)))
 (let (($x5372 (or $x4769 (<= (+ (* (- 1.0) L_0) C A_1 (* (- 1.0) S_3)) 0.0))))
 (let (($x4771 (or (<= (+ (* 2.0 C) (* (- 1.0) S_3) S_0) 0.0) (not $x4769))))
 (let (($x54 (= L_1 L_0)))
 (let (($x230 (or $x54 (not (<= 0.0 (+ L_1 (* (- 1.0) A_1) (* (- 1.0) C) S_4))))))
 (let (($x36 (>= L_0 L0)))
 (let (($x111 (>= S_1 S_0)))
 (let (($x114 (>= S_2 S_1)))
 (let (($x117 (>= S_3 S_2)))
 (let (($x120 (>= S_4 S_3)))
 (let (($x122 (>= A_1 A_0)))
 (let (($x124 (>= A_3 A_2)))
 (let (($x125 (>= A_4 A_3)))
 (and (<= (+ A_1 (* (- 1.0) L_1)) S_4) $x125 $x124 $x122 $x120 $x117 $x114 $x111 $x36 (or $x54 (not (<= 0.0 (+ (* (- 1.0) L_1) L_0)))) (<= (+ (* (- 3.0) C) L_0 S_3 (* (- 1.0) A_0)) 0.0) (<= (+ (* (- 4.0) C) S_3 (* (- 1.0) S_0)) 0.0) (or (<= (+ (* 3.0 C) (* (- 1.0) S_4) S_0) 0.0) $x4637) (<= (+ (* (- 1.0) C) L_0 S_1 (* (- 1.0) A_0)) 0.0) $x230 (<= (+ L_0 (* (- 1.0) A_1) S_1) 0.0) (<= (+ (* (- 2.0) C) (* (- 1.0) S_0) S_1) 0.0) (<= (+ L_0 (* (- 1.0) C) (* (- 1.0) A_1) S_2) 0.0) $x4771 $x5372 (or $x4794 $x4797) (<= (+ L_1 (* (- 1.0) A_1) (* (- 2.0) C) S_3) 0.0) (<= (+ L_0 (* (- 3.0) C) (* (- 1.0) A_1) S_4) 0.0) (or (<= (+ (* (- 1.0) L_0) A_1 (* (- 1.0) S_2)) 0.0) $x4797) (or (<= (+ C S_0 (* (- 1.0) S_2)) 0.0) $x4637) $x789 $x37 (not (>= (+ L_1 (* (- 1.0) A_2) S_4) 0.0)) (<= (+ (* (- 2.0) C) S_3 (* (- 1.0) S_2)) 0.0) (<= (+ L_0 S_0 (* (- 1.0) A_0)) 0.0) (<= (+ (* (- 3.0) C) S_3 (* (- 1.0) S_1)) 0.0) (<= (+ (* (- 3.0) C) S_4 (* (- 1.0) S_2)) 0.0) (<= (+ L_0 (* (- 4.0) C) S_4 (* (- 1.0) A_0)) 0.0) (<= (+ (* (- 2.0) C) (* (- 1.0) S_3) S_4) 0.0) (<= (+ (* (- 5.0) C) S_4 (* (- 1.0) S_0)) 0.0) (<= (+ (* (- 4.0) C) S_4 (* (- 1.0) S_1)) 0.0) (<= (+ C (* (- 1.0) S_4) S_2) 0.0) (<= (+ (* (- 3.0) C) (* (- 1.0) S_0) S_2) 0.0) (<= (+ (* (- 2.0) C) (* (- 1.0) S_1) S_2) 0.0) (<= (+ C (* (- 1.0) S_3) S_1) 0.0) (<= (+ (* 2.0 C) (* (- 1.0) S_4) S_1) 0.0) (<= (+ L_0 (* (- 2.0) C) S_2 (* (- 1.0) A_0)) 0.0)))))))))))))))))))))
(check-sat)
